c "421909.clq"
p edge 100 1344
e 1 17
e 1 18
e 1 19
e 1 20
e 1 21
e 1 22
e 1 23
e 1 24
e 1 26
e 1 27
e 1 28
e 1 30
e 1 39
e 1 41
e 1 43
e 1 46
e 1 51
e 1 52
e 1 53
e 1 54
e 1 57
e 1 63
e 1 72
e 1 73
e 1 74
e 1 78
e 1 90
e 1 94
e 2 17
e 2 18
e 2 19
e 2 20
e 2 21
e 2 22
e 2 27
e 2 29
e 2 31
e 2 35
e 2 46
e 2 53
e 2 57
e 2 67
e 2 68
e 2 72
e 2 83
e 2 86
e 2 95
e 2 97
e 3 17
e 3 18
e 3 19
e 3 20
e 3 21
e 3 22
e 3 24
e 3 25
e 3 26
e 3 27
e 3 28
e 3 29
e 3 30
e 3 31
e 3 37
e 3 38
e 3 40
e 3 54
e 3 56
e 3 58
e 3 64
e 3 65
e 3 69
e 3 79
e 3 80
e 3 81
e 3 83
e 3 87
e 3 89
e 3 92
e 3 97
e 3 98
e 4 17
e 4 18
e 4 19
e 4 21
e 4 22
e 4 23
e 4 24
e 4 25
e 4 26
e 4 27
e 4 29
e 4 30
e 4 34
e 4 35
e 4 36
e 4 37
e 4 39
e 4 50
e 4 57
e 4 61
e 4 64
e 4 70
e 4 72
e 4 74
e 4 79
e 4 96
e 4 97
e 5 17
e 5 20
e 5 22
e 5 23
e 5 25
e 5 27
e 5 30
e 5 33
e 5 39
e 5 40
e 5 42
e 5 44
e 5 53
e 5 55
e 5 58
e 5 63
e 5 68
e 5 69
e 5 70
e 5 71
e 5 82
e 5 84
e 6 17
e 6 18
e 6 19
e 6 22
e 6 23
e 6 25
e 6 26
e 6 27
e 6 28
e 6 30
e 6 31
e 6 33
e 6 34
e 6 36
e 6 41
e 6 42
e 6 49
e 6 51
e 6 54
e 6 55
e 6 56
e 6 57
e 6 67
e 6 70
e 6 71
e 6 74
e 6 75
e 6 76
e 6 77
e 6 78
e 6 86
e 6 89
e 6 91
e 6 97
e 7 17
e 7 18
e 7 19
e 7 20
e 7 23
e 7 24
e 7 25
e 7 26
e 7 29
e 7 33
e 7 34
e 7 35
e 7 36
e 7 40
e 7 42
e 7 43
e 7 45
e 7 50
e 7 59
e 7 60
e 7 68
e 7 72
e 7 98
e 8 17
e 8 18
e 8 19
e 8 20
e 8 21
e 8 22
e 8 23
e 8 24
e 8 25
e 8 28
e 8 35
e 8 36
e 8 41
e 8 42
e 8 48
e 8 49
e 8 52
e 8 61
e 8 65
e 8 76
e 8 81
e 8 94
e 9 17
e 9 18
e 9 19
e 9 20
e 9 21
e 9 23
e 9 24
e 9 25
e 9 31
e 9 32
e 9 33
e 9 37
e 9 42
e 9 43
e 9 53
e 9 55
e 9 71
e 9 76
e 9 82
e 9 85
e 9 87
e 9 99
e 10 17
e 10 18
e 10 19
e 10 20
e 10 21
e 10 22
e 10 27
e 10 29
e 10 30
e 10 31
e 10 32
e 10 33
e 10 35
e 10 46
e 10 60
e 10 63
e 10 67
e 10 69
e 10 73
e 11 17
e 11 18
e 11 19
e 11 20
e 11 21
e 11 22
e 11 24
e 11 25
e 11 28
e 11 32
e 11 34
e 11 39
e 11 40
e 11 42
e 11 43
e 11 45
e 11 46
e 11 47
e 11 56
e 11 67
e 11 69
e 11 87
e 11 92
e 11 98
e 12 17
e 12 18
e 12 19
e 12 20
e 12 21
e 12 22
e 12 23
e 12 24
e 12 25
e 12 26
e 12 28
e 12 29
e 12 34
e 12 40
e 12 45
e 12 46
e 12 52
e 12 56
e 12 62
e 12 66
e 12 68
e 12 69
e 12 70
e 12 87
e 12 89
e 12 97
e 13 17
e 13 18
e 13 19
e 13 20
e 13 21
e 13 36
e 13 74
e 13 81
e 13 84
e 14 17
e 14 18
e 14 20
e 14 21
e 14 22
e 14 26
e 14 27
e 14 36
e 14 37
e 14 40
e 14 45
e 14 49
e 14 50
e 14 64
e 14 66
e 14 67
e 14 79
e 14 80
e 14 85
e 14 92
e 15 17
e 15 18
e 15 19
e 15 23
e 15 31
e 15 38
e 15 44
e 15 48
e 15 58
e 15 60
e 15 69
e 15 71
e 15 80
e 15 88
e 15 98
e 16 17
e 16 18
e 16 19
e 16 20
e 16 21
e 16 22
e 16 23
e 16 24
e 16 26
e 16 27
e 16 29
e 16 33
e 16 37
e 16 38
e 16 41
e 16 43
e 16 48
e 16 49
e 16 50
e 16 51
e 16 59
e 16 63
e 16 67
e 16 79
e 16 86
e 17 18
e 17 19
e 17 20
e 17 21
e 17 22
e 17 23
e 17 24
e 17 25
e 17 26
e 17 27
e 17 28
e 17 29
e 17 30
e 17 31
e 17 32
e 17 33
e 17 36
e 17 37
e 17 38
e 17 39
e 17 41
e 17 43
e 17 45
e 17 46
e 17 47
e 17 48
e 17 49
e 17 53
e 17 54
e 17 55
e 17 56
e 17 57
e 17 59
e 17 62
e 17 65
e 17 67
e 17 72
e 17 73
e 17 77
e 17 78
e 17 79
e 17 80
e 17 83
e 17 87
e 17 88
e 17 91
e 17 93
e 17 96
e 17 99
e 17 100
e 18 19
e 18 20
e 18 21
e 18 22
e 18 23
e 18 24
e 18 25
e 18 26
e 18 27
e 18 28
e 18 32
e 18 33
e 18 34
e 18 36
e 18 37
e 18 38
e 18 39
e 18 40
e 18 41
e 18 42
e 18 43
e 18 47
e 18 49
e 18 50
e 18 51
e 18 54
e 18 56
e 18 57
e 18 58
e 18 59
e 18 62
e 18 64
e 18 66
e 18 67
e 18 70
e 18 74
e 18 80
e 18 83
e 18 86
e 18 89
e 18 90
e 18 95
e 18 96
e 18 97
e 18 98
e 19 20
e 19 21
e 19 22
e 19 23
e 19 24
e 19 25
e 19 26
e 19 27
e 19 28
e 19 29
e 19 32
e 19 33
e 19 34
e 19 35
e 19 38
e 19 41
e 19 44
e 19 47
e 19 50
e 19 52
e 19 54
e 19 61
e 19 62
e 19 63
e 19 65
e 19 66
e 19 67
e 19 71
e 19 73
e 19 74
e 19 75
e 19 81
e 19 84
e 19 85
e 19 98
e 20 21
e 20 22
e 20 23
e 20 24
e 20 25
e 20 26
e 20 27
e 20 28
e 20 29
e 20 30
e 20 31
e 20 33
e 20 39
e 20 41
e 20 42
e 20 44
e 20 45
e 20 49
e 20 50
e 20 51
e 20 52
e 20 55
e 20 58
e 20 60
e 20 61
e 20 62
e 20 63
e 20 70
e 20 72
e 20 73
e 20 75
e 20 76
e 20 84
e 20 85
e 20 88
e 20 89
e 20 96
e 20 99
e 20 100
e 21 23
e 21 24
e 21 26
e 21 28
e 21 30
e 21 31
e 21 32
e 21 33
e 21 35
e 21 36
e 21 37
e 21 38
e 21 39
e 21 43
e 21 44
e 21 45
e 21 46
e 21 47
e 21 50
e 21 54
e 21 58
e 21 60
e 21 74
e 21 79
e 21 80
e 21 83
e 21 85
e 21 88
e 21 97
e 21 98
e 21 99
e 22 23
e 22 24
e 22 25
e 22 26
e 22 27
e 22 28
e 22 29
e 22 30
e 22 31
e 22 32
e 22 33
e 22 34
e 22 35
e 22 36
e 22 37
e 22 38
e 22 41
e 22 42
e 22 43
e 22 44
e 22 46
e 22 49
e 22 56
e 22 57
e 22 58
e 22 60
e 22 62
e 22 67
e 22 68
e 22 69
e 22 73
e 22 75
e 22 76
e 22 82
e 22 83
e 22 84
e 22 87
e 22 88
e 22 93
e 22 94
e 22 98
e 23 24
e 23 25
e 23 28
e 23 29
e 23 30
e 23 32
e 23 33
e 23 34
e 23 36
e 23 37
e 23 38
e 23 42
e 23 44
e 23 45
e 23 46
e 23 48
e 23 50
e 23 51
e 23 52
e 23 53
e 23 54
e 23 56
e 23 57
e 23 59
e 23 60
e 23 62
e 23 65
e 23 68
e 23 72
e 23 82
e 23 83
e 23 87
e 23 90
e 23 91
e 23 92
e 23 95
e 23 97
e 23 99
e 24 25
e 24 26
e 24 27
e 24 28
e 24 29
e 24 30
e 24 31
e 24 32
e 24 34
e 24 35
e 24 38
e 24 39
e 24 40
e 24 41
e 24 42
e 24 44
e 24 46
e 24 47
e 24 50
e 24 51
e 24 53
e 24 54
e 24 55
e 24 56
e 24 57
e 24 59
e 24 62
e 24 66
e 24 67
e 24 68
e 24 71
e 24 73
e 24 86
e 24 89
e 24 92
e 24 97
e 25 26
e 25 28
e 25 30
e 25 31
e 25 32
e 25 34
e 25 35
e 25 36
e 25 38
e 25 40
e 25 42
e 25 44
e 25 47
e 25 48
e 25 49
e 25 53
e 25 55
e 25 65
e 25 68
e 25 74
e 25 79
e 25 87
e 25 88
e 25 93
e 26 27
e 26 29
e 26 30
e 26 31
e 26 32
e 26 34
e 26 37
e 26 38
e 26 39
e 26 43
e 26 44
e 26 47
e 26 48
e 26 50
e 26 53
e 26 59
e 26 65
e 26 68
e 26 69
e 26 70
e 26 78
e 26 85
e 26 87
e 26 90
e 26 91
e 26 95
e 26 96
e 27 28
e 27 29
e 27 30
e 27 32
e 27 33
e 27 35
e 27 39
e 27 40
e 27 41
e 27 45
e 27 46
e 27 52
e 27 56
e 27 58
e 27 66
e 27 72
e 27 78
e 27 81
e 27 88
e 27 91
e 27 92
e 27 98
e 28 29
e 28 30
e 28 31
e 28 34
e 28 35
e 28 38
e 28 39
e 28 42
e 28 48
e 28 50
e 28 52
e 28 53
e 28 56
e 28 57
e 28 62
e 28 63
e 28 66
e 28 71
e 28 74
e 28 76
e 28 80
e 28 81
e 28 83
e 28 84
e 28 87
e 28 90
e 28 93
e 28 94
e 28 96
e 29 31
e 29 32
e 29 33
e 29 35
e 29 36
e 29 43
e 29 46
e 29 47
e 29 48
e 29 50
e 29 54
e 29 55
e 29 58
e 29 59
e 29 60
e 29 63
e 29 64
e 29 65
e 29 66
e 29 68
e 29 71
e 29 72
e 29 75
e 29 77
e 29 78
e 29 82
e 29 90
e 29 95
e 29 99
e 29 100
e 30 31
e 30 32
e 30 34
e 30 35
e 30 36
e 30 37
e 30 40
e 30 41
e 30 44
e 30 49
e 30 53
e 30 55
e 30 56
e 30 58
e 30 61
e 30 63
e 30 64
e 30 75
e 30 79
e 30 84
e 30 85
e 30 89
e 30 96
e 30 97
e 31 32
e 31 34
e 31 35
e 31 37
e 31 38
e 31 42
e 31 43
e 31 45
e 31 48
e 31 49
e 31 51
e 31 56
e 31 59
e 31 60
e 31 65
e 31 69
e 31 70
e 31 73
e 31 76
e 31 79
e 31 83
e 31 86
e 31 91
e 31 92
e 31 100
e 32 33
e 32 36
e 32 37
e 32 38
e 32 40
e 32 41
e 32 43
e 32 47
e 32 48
e 32 50
e 32 54
e 32 56
e 32 63
e 32 66
e 32 74
e 32 83
e 32 90
e 32 94
e 33 34
e 33 35
e 33 36
e 33 39
e 33 40
e 33 41
e 33 45
e 33 46
e 33 47
e 33 51
e 33 54
e 33 55
e 33 59
e 33 62
e 33 73
e 33 75
e 33 80
e 33 82
e 33 83
e 33 84
e 33 85
e 33 95
e 33 96
e 33 99
e 34 37
e 34 39
e 34 40
e 34 41
e 34 44
e 34 45
e 34 49
e 34 52
e 34 54
e 34 61
e 34 63
e 34 64
e 34 73
e 34 75
e 34 77
e 34 84
e 34 85
e 35 39
e 35 42
e 35 44
e 35 46
e 35 47
e 35 48
e 35 51
e 35 53
e 35 58
e 35 63
e 35 65
e 35 69
e 35 70
e 35 72
e 35 75
e 35 77
e 35 84
e 35 85
e 35 87
e 35 92
e 35 94
e 35 97
e 36 37
e 36 38
e 36 43
e 36 44
e 36 45
e 36 46
e 36 48
e 36 50
e 36 51
e 36 52
e 36 53
e 36 60
e 36 62
e 36 73
e 36 78
e 36 79
e 36 81
e 36 85
e 36 86
e 36 91
e 36 95
e 36 97
e 37 40
e 37 45
e 37 63
e 37 64
e 37 65
e 37 68
e 37 71
e 37 73
e 37 76
e 37 87
e 37 91
e 37 96
e 38 39
e 38 48
e 38 58
e 38 64
e 39 40
e 39 41
e 39 43
e 39 47
e 39 48
e 39 49
e 39 51
e 39 55
e 39 62
e 39 72
e 39 76
e 39 89
e 39 93
e 39 95
e 39 98
e 40 47
e 40 51
e 40 61
e 40 74
e 40 76
e 40 77
e 41 42
e 41 43
e 41 52
e 41 58
e 41 62
e 41 69
e 41 72
e 41 85
e 41 88
e 41 100
e 42 44
e 42 45
e 42 46
e 42 47
e 42 49
e 42 53
e 42 54
e 42 60
e 42 61
e 42 64
e 42 70
e 42 71
e 42 72
e 42 74
e 42 95
e 43 44
e 43 45
e 43 49
e 43 51
e 43 52
e 43 53
e 43 55
e 43 59
e 43 61
e 43 62
e 43 76
e 43 82
e 43 92
e 43 94
e 43 96
e 44 47
e 44 48
e 44 52
e 44 56
e 44 60
e 44 61
e 44 62
e 44 63
e 44 64
e 44 67
e 44 70
e 44 75
e 44 76
e 44 77
e 44 79
e 44 80
e 44 82
e 44 84
e 44 91
e 44 93
e 44 96
e 44 99
e 44 100
e 45 51
e 45 52
e 45 54
e 45 55
e 45 57
e 45 59
e 45 60
e 45 66
e 45 75
e 45 80
e 45 83
e 45 89
e 45 92
e 45 93
e 45 95
e 46 55
e 46 57
e 46 61
e 46 67
e 46 68
e 46 74
e 46 77
e 46 86
e 46 87
e 46 89
e 46 94
e 46 98
e 46 100
e 47 49
e 47 51
e 47 53
e 47 55
e 47 57
e 47 64
e 47 68
e 47 71
e 47 73
e 47 74
e 47 76
e 47 78
e 47 80
e 47 81
e 47 82
e 47 84
e 47 85
e 47 86
e 47 88
e 47 89
e 47 94
e 47 97
e 48 50
e 48 57
e 48 61
e 48 65
e 48 71
e 48 74
e 48 78
e 48 82
e 48 83
e 48 85
e 48 90
e 48 95
e 49 52
e 49 58
e 49 60
e 49 74
e 49 81
e 49 82
e 49 85
e 49 93
e 49 96
e 50 54
e 50 65
e 50 66
e 50 68
e 50 72
e 50 75
e 50 77
e 50 82
e 50 87
e 50 92
e 50 98
e 51 52
e 51 59
e 51 60
e 51 64
e 51 69
e 51 80
e 51 90
e 51 100
e 52 57
e 52 64
e 52 65
e 52 73
e 52 78
e 52 79
e 52 85
e 52 86
e 52 90
e 53 57
e 53 63
e 53 66
e 53 77
e 53 78
e 53 86
e 53 87
e 53 92
e 53 98
e 53 99
e 54 55
e 54 56
e 54 58
e 54 59
e 54 61
e 54 65
e 54 66
e 54 71
e 54 84
e 54 90
e 54 94
e 55 59
e 55 60
e 55 62
e 55 69
e 55 70
e 55 86
e 55 93
e 55 99
e 55 100
e 56 58
e 56 80
e 56 89
e 56 90
e 56 100
e 57 61
e 57 64
e 57 70
e 57 78
e 57 79
e 57 81
e 57 87
e 57 95
e 57 98
e 58 59
e 58 61
e 58 70
e 58 76
e 58 80
e 58 82
e 58 91
e 58 94
e 58 95
e 58 99
e 59 61
e 59 66
e 59 67
e 59 71
e 59 81
e 59 89
e 59 91
e 59 99
e 60 73
e 60 75
e 60 78
e 60 86
e 60 91
e 60 94
e 60 95
e 61 65
e 61 86
e 61 91
e 62 63
e 62 64
e 62 67
e 62 70
e 62 73
e 62 75
e 62 77
e 62 80
e 62 82
e 62 88
e 62 92
e 62 93
e 62 94
e 63 66
e 63 69
e 63 71
e 63 72
e 63 76
e 63 77
e 63 96
e 63 97
e 64 66
e 64 67
e 64 69
e 64 72
e 64 86
e 64 100
e 65 68
e 65 70
e 65 77
e 65 82
e 65 88
e 65 96
e 66 68
e 66 75
e 66 77
e 66 84
e 66 88
e 66 90
e 67 71
e 67 77
e 67 79
e 67 83
e 67 90
e 67 100
e 68 69
e 68 81
e 68 86
e 69 83
e 69 99
e 70 75
e 70 81
e 70 89
e 70 94
e 71 78
e 71 91
e 71 97
e 71 100
e 72 76
e 72 77
e 72 92
e 72 98
e 73 78
e 73 93
e 74 79
e 74 81
e 74 93
e 75 78
e 75 82
e 75 84
e 75 88
e 75 91
e 75 92
e 75 93
e 76 81
e 77 88
e 77 89
e 77 92
e 77 97
e 77 100
e 78 79
e 78 80
e 78 89
e 78 93
e 78 95
e 78 96
e 78 100
e 79 91
e 80 81
e 80 94
e 81 88
e 82 83
e 82 84
e 83 98
e 85 88
e 85 99
e 86 90
e 86 93
e 87 90
e 89 94
e 89 96
e 90 93
e 94 95
e 95 99
e 96 99
e 96 100
